certificates/rado_a3_c53_N17.cnf
c Rad2 upper bound instance: x1 + 3*x2 - x3 = 53, interval [1,17]
p cnf 17 90
1 3 17 0
-1 -3 -17 0
2 4 17 0
-2 -4 -17 0
3 5 17 0
-3 -5 -17 0
1 6 16 0
-1 -6 -16 0
4 6 17 0
-4 -6 -17 0
2 7 16 0
-2 -7 -16 0
5 7 17 0
-5 -7 -17 0
3 8 16 0
-3 -8 -16 0
6 8 17 0
-6 -8 -17 0
1 9 15 0
-1 -9 -15 0
4 9 16 0
-4 -9 -16 0
7 9 17 0
-7 -9 -17 0
2 10 15 0
-2 -10 -15 0
5 10 16 0
-5 -10 -16 0
8 10 17 0
-8 -10 -17 0
3 11 15 0
-3 -11 -15 0
6 11 16 0
-6 -11 -16 0
9 11 17 0
-9 -11 -17 0
1 12 14 0
-1 -12 -14 0
4 12 15 0
-4 -12 -15 0
7 12 16 0
-7 -12 -16 0
10 12 17 0
-10 -12 -17 0
2 13 14 0
-2 -13 -14 0
5 13 15 0
-5 -13 -15 0
8 13 16 0
-8 -13 -16 0
11 13 17 0
-11 -13 -17 0
3 14 0
-3 -14 0
6 14 15 0
-6 -14 -15 0
9 14 16 0
-9 -14 -16 0
12 14 17 0
-12 -14 -17 0
1 13 15 0
-1 -13 -15 0
4 14 15 0
-4 -14 -15 0
7 15 0
-7 -15 0
10 15 16 0
-10 -15 -16 0
13 15 17 0
-13 -15 -17 0
2 13 16 0
-2 -13 -16 0
5 14 16 0
-5 -14 -16 0
8 15 16 0
-8 -15 -16 0
11 16 0
-11 -16 0
14 16 17 0
-14 -16 -17 0
3 13 17 0
-3 -13 -17 0
6 14 17 0
-6 -14 -17 0
9 15 17 0
-9 -15 -17 0
12 16 17 0
-12 -16 -17 0
15 17 0
-15 -17 0
