certificates/rado_a3_c53_N17.drat
-17 0
15 0
-7 0
5 0
9 0
-13 0
-1 0
11 0
3 0
0
